troubleshoot/initialisation.ilp
\ Model initialisation_copy
\ LP format - for model browsing. Use MPS format to capture full model detail.
Maximize
 
Subject To
 R20: 0.1666666666666667 1 - 0.1666666666666667 7 + t[0]
   <= -5.000166666666667
 R24: 0.1666666666666667 1 - 0.1666666666666667 7 + t[0]
   >= -4.999833333333333
Bounds
 1 free
 7 free
 t[0] free
End
