troubleshoot/initialisation.mps
NAME initialisation
OBJSENSE MAX
ROWS
 N  OBJ
 L  R0      
 L  R1      
 L  R2      
 L  R3      
 L  R4      
 L  R5      
 L  R6      
 L  R7      
 L  R8      
 L  R9      
 L  R10     
 L  R11     
 L  R12     
 L  R13     
 L  R14     
 L  R15     
 L  R16     
 L  R17     
 L  R18     
 L  R19     
 E  R20     
 E  R21     
 E  R22     
 L  R23     
 L  R24     
 L  R25     
 G  R26     
 G  R27     
 G  R28     
 E  R29     
COLUMNS
    0         R0        -1
    0         R1        1
    0         R2        -1
    0         R3        1
    0         R16       -1
    0         R17       1
    0         R29       1
    1         R0        1
    1         R1        -1
    1         R10       -1
    1         R11       1
    1         R23       1.6666666666666666e-01
    1         R24       -1.6666666666666666e-01
    1         R26       1.6666666666666666e-01
    1         R27       -1.6666666666666666e-01
    3         R2        1
    3         R3        -1
    3         R4        -1
    3         R5        1
    3         R8        -1
    3         R9        1
    3         R14       -1
    3         R15       1
    4         R4        1
    4         R5        -1
    4         R6        -1
    4         R7        1
    5         R6        1
    5         R7        -1
    5         R8        1
    5         R9        -1
    5         R12       -1
    5         R13       1
    6         R12       1
    6         R13       -1
    6         R14       1
    6         R15       -1
    6         R18       -1
    6         R19       1
    7         R10       1
    7         R11       -1
    7         R23       -1.6666666666666666e-01
    7         R24       1.6666666666666666e-01
    7         R25       1.6666666666666666e-01
    7         R26       -1.6666666666666666e-01
    7         R27       1.6666666666666666e-01
    7         R28       1.6666666666666666e-01
    9         R16       1
    9         R17       -1
    9         R18       1
    9         R19       -1
    9         R25       -1.6666666666666666e-01
    9         R28       -1.6666666666666666e-01
    c(0,9)_rl  R17       -1
    c(0,9)_ru  R16       -1
    t[0]      OBJ       1
    t[0]      R20       -1
    t[0]      R21       -1
    t[0]      R22       -1
    z0[0]     R20       1
    z0[0]     R23       1
    z0[0]     R26       1
    z0[1]     R21       1
    z0[1]     R24       1
    z0[1]     R27       1
    z0[2]     R22       1
    z0[2]     R25       1
    z0[2]     R28       1
RHS
    RHS1      R0        10000
    RHS1      R1        -0.001
    RHS1      R2        10000
    RHS1      R3        -0.001
    RHS1      R4        30
    RHS1      R5        -30
    RHS1      R6        10000
    RHS1      R7        -0.001
    RHS1      R8        10000
    RHS1      R9        -0.001
    RHS1      R10       10000
    RHS1      R11       -0.001
    RHS1      R12       10
    RHS1      R13       -10
    RHS1      R14       10000
    RHS1      R15       -0.001
    RHS1      R16       60.001
    RHS1      R18       10000
    RHS1      R19       -0.001
    RHS1      R23       -5.0001666666666669e+00
    RHS1      R24       1.6616666666666665e+03
    RHS1      R25       -5.0001666666666669e+00
    RHS1      R26       -1.6716666666666665e+03
    RHS1      R27       -4.9998333333333331e+00
    RHS1      R28       -1.6716666666666665e+03
BOUNDS
ENDATA
