troubleshoot/initialisation.sol
# Solution for model initialisation
# Objective value = 8.2833324999999991e+02
0 0
1 0.001
3 10000
4 10030
5 10030.001
6 10040.001
7 5000.0015
9 20000.001
c(0,9)_rl 0
c(0,9)_ru 19940
t[0] 8.2833324999999991e+02
z0[0] 8.2833324999999991e+02
z0[1] 8.2833324999999991e+02
z0[2] 8.2833324999999991e+02
